c PicoSAT SAT Solver Version 959
c Copyright (c) 2006 - 2014 Armin Biere JKU Linz
c gcc -Wall -Wextra -DNDEBUG -O3 -fno-strict-aliasing
c
c using 2 as default phase
c
c parsing <stdin>
c parsed header 'p cnf 250 1063'
c initialized 250 variables
c found 1063 non trivial clauses
c
c random number generator seed 0
c 
c  seconds     variables   original    learned     agility
c         level        used      conflicts    limit          MB
c 
c s   0.0   0.0   250   0.0  1063     0     0     0   0.0   0.1 
c 
c initial reduction limit 1000 clauses
c 
c +   0.0  23.1   250  94.4  1063   100   100  1100  12.1   0.1 
c R   0.0  23.1   250  94.4  1063   101   101  1100  12.1   0.1 
c +   0.0  17.7   250  97.6  1063   221   221  1210  21.3   0.1 
c +   0.0  16.6   250  99.2  1063   367   367  1331  24.2   0.1 
c N   0.0  16.6   250  99.2  1063   402   402  1331  24.7   0.1 
c +   0.0  15.9   250  99.6  1063   543   543  1464  27.2   0.1 
c +   0.0  15.4   250  99.6  1063   755   755  1610  27.7   0.1 
c +   0.0  15.0   250  99.6  1063  1011  1011  1771  30.3   0.1 
c N   0.0  14.8   250  99.6  1063  1203  1203  1771  30.1   0.1 
c +   0.0  14.7   250  99.6  1063  1320  1320  1948  29.4   0.2 
c +   0.0  14.4   250  99.6  1063  1693  1693  2142  29.8   0.2 
c +   0.0  14.3   250  99.6  1063  2144  2144  2356  28.1   0.2 
c +   0.0  14.5   250  99.6  1063  2689  1504  2591  28.6   0.2 
c N   0.0  14.3   250  99.6  1063  3206  2021  2591  29.9   0.2 
c +   0.0  14.2   250  99.6  1063  3348  2163  2850  29.9   0.2 
c +   0.1  14.0   250  99.6  1063  4145  1531  3135  30.3   0.2 
c +   0.1  14.1   250  99.6  1063  5109  2495  3448  31.4   0.3 
c +   0.1  13.8   250  99.6  1063  6275  1931  3792  30.3   0.2 
c +   0.1  13.6   250  99.6  1063  7685  3341  4171  29.7   0.3 
c N   0.1  13.6   250  99.6  1063  8015  3671  4171  30.3   0.3 
c 
c  seconds     variables   original    learned     agility
c         level        used      conflicts    limit          MB
c 
c +   0.1  13.3   250  99.6  1063  9391  2957  4588  29.0   0.3 
c +   0.2  13.2   250  99.6  1063 11455  2723  5046  32.0   0.3 
c +   0.2  12.9   250  99.6  1063 13952  2691  5550  29.0   0.3 
c +   0.3  12.9   250  99.6  1063 16973  2931  6105  28.9   0.3 
c N   0.3  12.8   250  99.6  1063 19242  5200  6105  30.5   0.4 
c +   0.3  12.9   250  99.6  1063 20628  3528  6715  31.4   0.3 
c +   0.4  12.8   250  99.6  1063 25050  4585  7386  27.9   0.4 
c +   0.5  12.7   250  99.6  1063 30400  6236  8124  28.4   0.5 
c +   0.6  12.5   250  99.6  1063 36873  4571  8936  27.6   0.4 
c +   0.8  12.3   250  99.6  1063 44705  7926  9829  27.3   0.7 
c N   0.8  12.3   250  99.6  1063 44882  8103  9829  28.0   0.7 
c 1   0.9  12.3   250  99.6  1063 48587  6888  9829  25.6   0.6 
c 
c  seconds     variables   original    learned     agility
c         level        used      conflicts    limit          MB
c 
s SATISFIABLE
v 1 2 3 -4 5 -6 -7 8 -9 -10 -11 -12 13 14 15 -16 17 18 19 -20 21 -22 23 24 -25
v 26 -27 -28 -29 -30 31 -32 33 -34 -35 36 -37 38 39 -40 41 42 43 -44 45 46 47
v -48 -49 50 51 -52 -53 -54 55 -56 -57 -58 59 -60 61 62 63 64 -65 66 67 -68 -69
v 70 71 -72 -73 -74 75 76 -77 -78 79 -80 81 -82 83 84 -85 -86 87 -88 89 -90 -91
v 92 93 94 -95 -96 97 98 -99 100 -101 102 103 -104 105 106 107 108 109 -110
v -111 112 113 114 115 116 117 -118 119 -120 121 -122 -123 124 -125 -126 127
v 128 129 -130 -131 132 -133 134 135 136 -137 138 -139 -140 -141 -142 143 144
v 145 -146 147 -148 149 150 151 -152 153 154 -155 156 157 -158 -159 -160 161
v -162 163 -164 -165 -166 -167 -168 169 170 171 -172 173 174 175 -176 177 -178
v 179 -180 -181 -182 183 -184 185 -186 -187 -188 189 190 -191 -192 -193 -194
v 195 -196 197 -198 -199 200 -201 -202 203 -204 -205 -206 207 208 209 -210 -211
v -212 213 -214 -215 -216 -217 -218 -219 220 -221 222 -223 224 225 226 -227
v -228 -229 -230 -231 232 -233 -234 -235 -236 -237 -238 239 240 241 -242 -243
v 244 -245 -246 247 248 249 -250 0
c
c 0 iterations
c 2 restarts
c 0 failed literals
c 48587 conflicts
c 56870 decisions
c 0 fixed variables
c 692524 learned literals
c 25.5% deleted literals
c 2841108 propagations
c 24810457 visits
c 99.6% variables used
c 0.9 seconds in library
c 3.3 megaprops/second
c 28.6 megavisits/second
c probing 0.0 seconds 0%
c 1 simplifications
c 14 reductions
c 3.2 MB recycled
c 0.8 MB maximally allocated
c 0.868000 seconds total run time
